NAME : A-n64-k9
COMMENT : (Augerat et al, Min no of trucks: 9, Best value: 1402)
TYPE : CVRP
DIMENSION : 64
EDGE_WEIGHT_TYPE : EUC_2D
CAPACITY : 100
NODE_COORD_SECTION
1 97 33
2 57 81
3 1 33
4 55 57
5 29 37
6 21 39
7 93 37
8 5 91
9 25 11
10 47 37
11 87 25
12 67 65
13 71 89
14 67 15
15 45 79
16 71 57
17 29 1
18 59 79
19 93 83
20 47 41
21 51 41
22 23 93
23 87 95
24 39 45
25 45 7
26 85 51
27 35 93
28 47 79
29 59 91
30 83 51
31 49 65
DEMAND_SECTION
1 0
2 10
3 15
4 23
5 23
6 24
7 17
8 1
9 4
10 2
11 5
12 18
13 9
14 8
15 23
16 13
17 4
18 18
19 16
20 26
21 16
22 4
23 23
24 8
25 26
26 16
27 5
28 2
29 21
30 23
31 8
DEPOT_SECTION
1
-1
EOF
